/* Objective function */
min: 5h1 + 5h2 + 5h3 + 5h4 + 5h5 + 5h6 + 10f1 + 10f2 + 10f3 + 10f4 + 10f5 + 10f6 + 8s1 + 8s2 + 8s3 + 8s4 + 8s5 + 8s6;

/* Constraints */
s0 = 20;
s0 + h1 - f1 - s1 = 0; 
s1 + h2 - f2 - s2 = 0;
s2 + h3 - f3 - s3 = 0; 
s3 + h4 - f4 - s4 = 0;
s4 + h5 - f5 - s5 = 0;
s5 + h6 - f6 - s6 = 0;

s1 >= 30;
s2 >= 60;
s3 >= 55;
s4 >= 40;
s5 >= 45;
s6 >= 50;

h1 <= 1000 b1;
h2 <= 1000 b2;
h3 <= 1000 b3;
h4 <= 1000 b4;
h5 <= 1000 b5;
h6 <= 1000 b6;


f2 + 1000 b1 <= 1000;
f3 + 1000 b2 <= 1000;
f4 + 1000 b3 <= 1000;
f5 + 1000 b4 <= 1000;
f6 + 1000 b5 <= 1000;


bin b1 , b2 , b3 , b4 ,b5 , b6;




